Primitive Cell
   1.000
   26.7403545819058195    0.0000000000000000    0.0000000000000000
    0.0000000000000016   26.7404062112200300    0.0000000000000000
    0.0000000000000002    0.0000000000000002    2.4668038282658098
   C 
   20
Direct
    0.3742189005474286    0.0267203388178814    0.2500000000000000     C1
    0.6257810994525714    0.9732796611821186    0.7500000000000000     C2
    0.3742189005474286    0.9732796611821186    0.2500000000000000     C3
    0.6257810994525714    0.0267203388178814    0.7500000000000000     C4
    0.3825351197114294    0.0523151772659230    0.7500000000000000     C5
    0.6174648802885705    0.9476848227340771    0.2500000000000000     C6
    0.3825351197114294    0.9476848227340771    0.7500000000000000     C7
    0.6174648802885705    0.0523151772659230    0.2500000000000000     C8
    0.4139466668150268    0.0955496516459150    0.7500000000000000     C9
    0.5860533331849732    0.9044503483540849    0.2500000000000000    C10
    0.4139466668150268    0.9044503483540849    0.7500000000000000    C11
    0.5860533331849732    0.0955496516459150    0.2500000000000000    C12
    0.4357188391535242    0.1113681520723589    0.2500000000000000    C13
    0.5642811608464757    0.8886318479276410    0.7500000000000000    C14
    0.4357188391535242    0.8886318479276410    0.2500000000000000    C15
    0.5642811608464757    0.1113681520723589    0.7500000000000000    C16
    0.4865439291269017    0.1278823008575652    0.2500000000000000    C17
    0.5134560708730983    0.8721176991424348    0.7500000000000000    C18
    0.4865439291269017    0.8721176991424348    0.2500000000000000    C19
    0.5134560708730983    0.1278823008575652    0.7500000000000000    C20
