generated by phonopy
   1.0
    27.8288993835000014    0.0000000000000000    0.0000000000000000
     0.0000000000000000   27.8288993835000014    0.0000000000000000
     0.0000000000000000    0.0000000000000000   34.0800018312000006
C
 320
Direct
  0.3593389890000000  0.5000000000000000  0.0833333752500000
  0.3593389890000000  0.5000000000000000  0.2083333752500000
  0.3593389890000000  0.5000000000000000  0.3333333752500000
  0.3593389890000000  0.5000000000000000  0.4583333752500000
  0.3593389890000000  0.5000000000000000  0.5833333752500000
  0.3593389890000000  0.5000000000000000  0.7083333752500000
  0.3593389890000000  0.5000000000000000  0.8333333752500000
  0.3593389890000000  0.5000000000000000  0.9583333752500000
  0.6406609760000000  0.5000000000000000  0.0416666282500000
  0.6406609760000000  0.5000000000000000  0.1666666282500000
  0.6406609760000000  0.5000000000000000  0.2916666282500000
  0.6406609760000000  0.5000000000000000  0.4166666282500000
  0.6406609760000000  0.5000000000000000  0.5416666282500000
  0.6406609760000000  0.5000000000000000  0.6666666282500000
  0.6406609760000000  0.5000000000000000  0.7916666282500000
  0.6406609760000000  0.5000000000000000  0.9166666282500000
  0.6406609760000000  0.5000000000000000  0.0833333752500000
  0.6406609760000000  0.5000000000000000  0.2083333752500000
  0.6406609760000000  0.5000000000000000  0.3333333752500000
  0.6406609760000000  0.5000000000000000  0.4583333752500000
  0.6406609760000000  0.5000000000000000  0.5833333752500000
  0.6406609760000000  0.5000000000000000  0.7083333752500000
  0.6406609760000000  0.5000000000000000  0.8333333752500000
  0.6406609760000000  0.5000000000000000  0.9583333752500000
  0.3593389890000000  0.5000000000000000  0.0416666282500000
  0.3593389890000000  0.5000000000000000  0.1666666282500000
  0.3593389890000000  0.5000000000000000  0.2916666282500000
  0.3593389890000000  0.5000000000000000  0.4166666282500000
  0.3593389890000000  0.5000000000000000  0.5416666282500000
  0.3593389890000000  0.5000000000000000  0.6666666282500000
  0.3593389890000000  0.5000000000000000  0.7916666282500000
  0.3593389890000000  0.5000000000000000  0.9166666282500000
  0.5000000000000000  0.3593389890000000  0.0208333735000000
  0.5000000000000000  0.3593389890000000  0.1458333735000000
  0.5000000000000000  0.3593389890000000  0.2708333735000000
  0.5000000000000000  0.3593389890000000  0.3958333735000000
  0.5000000000000000  0.3593389890000000  0.5208333735000000
  0.5000000000000000  0.3593389890000000  0.6458333735000000
  0.5000000000000000  0.3593389890000000  0.7708333735000000
  0.5000000000000000  0.3593389890000000  0.8958333735000000
  0.5000000000000000  0.6406609760000000  0.1041666247500000
  0.5000000000000000  0.6406609760000000  0.2291666247500000
  0.5000000000000000  0.6406609760000000  0.3541666247500000
  0.5000000000000000  0.6406609760000000  0.4791666247500000
  0.5000000000000000  0.6406609760000000  0.6041666247500000
  0.5000000000000000  0.6406609760000000  0.7291666247500000
  0.5000000000000000  0.6406609760000000  0.8541666247500000
  0.5000000000000000  0.6406609760000000  0.9791666247500000
  0.5000000000000000  0.6406609760000000  0.0208333735000000
  0.5000000000000000  0.6406609760000000  0.1458333735000000
  0.5000000000000000  0.6406609760000000  0.2708333735000000
  0.5000000000000000  0.6406609760000000  0.3958333735000000
  0.5000000000000000  0.6406609760000000  0.5208333735000000
  0.5000000000000000  0.6406609760000000  0.6458333735000000
  0.5000000000000000  0.6406609760000000  0.7708333735000000
  0.5000000000000000  0.6406609760000000  0.8958333735000000
  0.5000000000000000  0.3593389890000000  0.1041666247500000
  0.5000000000000000  0.3593389890000000  0.2291666247500000
  0.5000000000000000  0.3593389890000000  0.3541666247500000
  0.5000000000000000  0.3593389890000000  0.4791666247500000
  0.5000000000000000  0.3593389890000000  0.6041666247500000
  0.5000000000000000  0.3593389890000000  0.7291666247500000
  0.5000000000000000  0.3593389890000000  0.8541666247500000
  0.5000000000000000  0.3593389890000000  0.9791666247500000
  0.3662230220000000  0.4565330060000000  0.0208333752500000
  0.3662230220000000  0.4565330060000000  0.1458333752500000
  0.3662230220000000  0.4565330060000000  0.2708333752500000
  0.3662230220000000  0.4565330060000000  0.3958333752500000
  0.3662230220000000  0.4565330060000000  0.5208333752500000
  0.3662230220000000  0.4565330060000000  0.6458333752500000
  0.3662230220000000  0.4565330060000000  0.7708333752500000
  0.3662230220000000  0.4565330060000000  0.8958333752500000
  0.6337770460000000  0.5434669940000000  0.1041666247500000
  0.6337770460000000  0.5434669940000000  0.2291666247500000
  0.6337770460000000  0.5434669940000000  0.3541666247500000
  0.6337770460000000  0.5434669940000000  0.4791666247500000
  0.6337770460000000  0.5434669940000000  0.6041666247500000
  0.6337770460000000  0.5434669940000000  0.7291666247500000
  0.6337770460000000  0.5434669940000000  0.8541666247500000
  0.6337770460000000  0.5434669940000000  0.9791666247500000
  0.6337770460000000  0.5434669940000000  0.0208333752500000
  0.6337770460000000  0.5434669940000000  0.1458333752500000
  0.6337770460000000  0.5434669940000000  0.2708333752500000
  0.6337770460000000  0.5434669940000000  0.3958333752500000
  0.6337770460000000  0.5434669940000000  0.5208333752500000
  0.6337770460000000  0.5434669940000000  0.6458333752500000
  0.6337770460000000  0.5434669940000000  0.7708333752500000
  0.6337770460000000  0.5434669940000000  0.8958333752500000
  0.3662230220000000  0.4565330060000000  0.1041666247500000
  0.3662230220000000  0.4565330060000000  0.2291666247500000
  0.3662230220000000  0.4565330060000000  0.3541666247500000
  0.3662230220000000  0.4565330060000000  0.4791666247500000
  0.3662230220000000  0.4565330060000000  0.6041666247500000
  0.3662230220000000  0.4565330060000000  0.7291666247500000
  0.3662230220000000  0.4565330060000000  0.8541666247500000
  0.3662230220000000  0.4565330060000000  0.9791666247500000
  0.5434669940000000  0.3662230220000000  0.0833333752500000
  0.5434669940000000  0.3662230220000000  0.2083333752500000
  0.5434669940000000  0.3662230220000000  0.3333333752500000
  0.5434669940000000  0.3662230220000000  0.4583333752500000
  0.5434669940000000  0.3662230220000000  0.5833333752500000
  0.5434669940000000  0.3662230220000000  0.7083333752500000
  0.5434669940000000  0.3662230220000000  0.8333333752500000
  0.5434669940000000  0.3662230220000000  0.9583333752500000
  0.4565330060000000  0.6337770460000000  0.0416666282500000
  0.4565330060000000  0.6337770460000000  0.1666666282500000
  0.4565330060000000  0.6337770460000000  0.2916666282500000
  0.4565330060000000  0.6337770460000000  0.4166666282500000
  0.4565330060000000  0.6337770460000000  0.5416666282500000
  0.4565330060000000  0.6337770460000000  0.6666666282500000
  0.4565330060000000  0.6337770460000000  0.7916666282500000
  0.4565330060000000  0.6337770460000000  0.9166666282500000
  0.4565330060000000  0.6337770460000000  0.0833333752500000
  0.4565330060000000  0.6337770460000000  0.2083333752500000
  0.4565330060000000  0.6337770460000000  0.3333333752500000
  0.4565330060000000  0.6337770460000000  0.4583333752500000
  0.4565330060000000  0.6337770460000000  0.5833333752500000
  0.4565330060000000  0.6337770460000000  0.7083333752500000
  0.4565330060000000  0.6337770460000000  0.8333333752500000
  0.4565330060000000  0.6337770460000000  0.9583333752500000
  0.5434669940000000  0.3662230220000000  0.0416666282500000
  0.5434669940000000  0.3662230220000000  0.1666666282500000
  0.5434669940000000  0.3662230220000000  0.2916666282500000
  0.5434669940000000  0.3662230220000000  0.4166666282500000
  0.5434669940000000  0.3662230220000000  0.5416666282500000
  0.5434669940000000  0.3662230220000000  0.6666666282500000
  0.5434669940000000  0.3662230220000000  0.7916666282500000
  0.5434669940000000  0.3662230220000000  0.9166666282500000
  0.6337770460000000  0.4565330060000000  0.1041666247500000
  0.6337770460000000  0.4565330060000000  0.2291666247500000
  0.6337770460000000  0.4565330060000000  0.3541666247500000
  0.6337770460000000  0.4565330060000000  0.4791666247500000
  0.6337770460000000  0.4565330060000000  0.6041666247500000
  0.6337770460000000  0.4565330060000000  0.7291666247500000
  0.6337770460000000  0.4565330060000000  0.8541666247500000
  0.6337770460000000  0.4565330060000000  0.9791666247500000
  0.3662230220000000  0.5434669940000000  0.0208333752500000
  0.3662230220000000  0.5434669940000000  0.1458333752500000
  0.3662230220000000  0.5434669940000000  0.2708333752500000
  0.3662230220000000  0.5434669940000000  0.3958333752500000
  0.3662230220000000  0.5434669940000000  0.5208333752500000
  0.3662230220000000  0.5434669940000000  0.6458333752500000
  0.3662230220000000  0.5434669940000000  0.7708333752500000
  0.3662230220000000  0.5434669940000000  0.8958333752500000
  0.3662230220000000  0.5434669940000000  0.1041666247500000
  0.3662230220000000  0.5434669940000000  0.2291666247500000
  0.3662230220000000  0.5434669940000000  0.3541666247500000
  0.3662230220000000  0.5434669940000000  0.4791666247500000
  0.3662230220000000  0.5434669940000000  0.6041666247500000
  0.3662230220000000  0.5434669940000000  0.7291666247500000
  0.3662230220000000  0.5434669940000000  0.8541666247500000
  0.3662230220000000  0.5434669940000000  0.9791666247500000
  0.6337770460000000  0.4565330060000000  0.0208333752500000
  0.6337770460000000  0.4565330060000000  0.1458333752500000
  0.6337770460000000  0.4565330060000000  0.2708333752500000
  0.6337770460000000  0.4565330060000000  0.3958333752500000
  0.6337770460000000  0.4565330060000000  0.5208333752500000
  0.6337770460000000  0.4565330060000000  0.6458333752500000
  0.6337770460000000  0.4565330060000000  0.7708333752500000
  0.6337770460000000  0.4565330060000000  0.8958333752500000
  0.4565330060000000  0.3662230220000000  0.0416666282500000
  0.4565330060000000  0.3662230220000000  0.1666666282500000
  0.4565330060000000  0.3662230220000000  0.2916666282500000
  0.4565330060000000  0.3662230220000000  0.4166666282500000
  0.4565330060000000  0.3662230220000000  0.5416666282500000
  0.4565330060000000  0.3662230220000000  0.6666666282500000
  0.4565330060000000  0.3662230220000000  0.7916666282500000
  0.4565330060000000  0.3662230220000000  0.9166666282500000
  0.5434669940000000  0.6337770460000000  0.0833333752500000
  0.5434669940000000  0.6337770460000000  0.2083333752500000
  0.5434669940000000  0.6337770460000000  0.3333333752500000
  0.5434669940000000  0.6337770460000000  0.4583333752500000
  0.5434669940000000  0.6337770460000000  0.5833333752500000
  0.5434669940000000  0.6337770460000000  0.7083333752500000
  0.5434669940000000  0.6337770460000000  0.8333333752500000
  0.5434669940000000  0.6337770460000000  0.9583333752500000
  0.5434669940000000  0.6337770460000000  0.0416666282500000
  0.5434669940000000  0.6337770460000000  0.1666666282500000
  0.5434669940000000  0.6337770460000000  0.2916666282500000
  0.5434669940000000  0.6337770460000000  0.4166666282500000
  0.5434669940000000  0.6337770460000000  0.5416666282500000
  0.5434669940000000  0.6337770460000000  0.6666666282500000
  0.5434669940000000  0.6337770460000000  0.7916666282500000
  0.5434669940000000  0.6337770460000000  0.9166666282500000
  0.4565330060000000  0.3662230220000000  0.0833333752500000
  0.4565330060000000  0.3662230220000000  0.2083333752500000
  0.4565330060000000  0.3662230220000000  0.3333333752500000
  0.4565330060000000  0.3662230220000000  0.4583333752500000
  0.4565330060000000  0.3662230220000000  0.5833333752500000
  0.4565330060000000  0.3662230220000000  0.7083333752500000
  0.4565330060000000  0.3662230220000000  0.8333333752500000
  0.4565330060000000  0.3662230220000000  0.9583333752500000
  0.3862029980000000  0.4173220080000000  0.0833333752500000
  0.3862029980000000  0.4173220080000000  0.2083333752500000
  0.3862029980000000  0.4173220080000000  0.3333333752500000
  0.3862029980000000  0.4173220080000000  0.4583333752500000
  0.3862029980000000  0.4173220080000000  0.5833333752500000
  0.3862029980000000  0.4173220080000000  0.7083333752500000
  0.3862029980000000  0.4173220080000000  0.8333333752500000
  0.3862029980000000  0.4173220080000000  0.9583333752500000
  0.6137970020000000  0.5826779580000000  0.0416666282500000
  0.6137970020000000  0.5826779580000000  0.1666666282500000
  0.6137970020000000  0.5826779580000000  0.2916666282500000
  0.6137970020000000  0.5826779580000000  0.4166666282500000
  0.6137970020000000  0.5826779580000000  0.5416666282500000
  0.6137970020000000  0.5826779580000000  0.6666666282500000
  0.6137970020000000  0.5826779580000000  0.7916666282500000
  0.6137970020000000  0.5826779580000000  0.9166666282500000
  0.6137970020000000  0.5826779580000000  0.0833333752500000
  0.6137970020000000  0.5826779580000000  0.2083333752500000
  0.6137970020000000  0.5826779580000000  0.3333333752500000
  0.6137970020000000  0.5826779580000000  0.4583333752500000
  0.6137970020000000  0.5826779580000000  0.5833333752500000
  0.6137970020000000  0.5826779580000000  0.7083333752500000
  0.6137970020000000  0.5826779580000000  0.8333333752500000
  0.6137970020000000  0.5826779580000000  0.9583333752500000
  0.3862029980000000  0.4173220080000000  0.0416666282500000
  0.3862029980000000  0.4173220080000000  0.1666666282500000
  0.3862029980000000  0.4173220080000000  0.2916666282500000
  0.3862029980000000  0.4173220080000000  0.4166666282500000
  0.3862029980000000  0.4173220080000000  0.5416666282500000
  0.3862029980000000  0.4173220080000000  0.6666666282500000
  0.3862029980000000  0.4173220080000000  0.7916666282500000
  0.3862029980000000  0.4173220080000000  0.9166666282500000
  0.5826779580000000  0.3862029980000000  0.0208333735000000
  0.5826779580000000  0.3862029980000000  0.1458333735000000
  0.5826779580000000  0.3862029980000000  0.2708333735000000
  0.5826779580000000  0.3862029980000000  0.3958333735000000
  0.5826779580000000  0.3862029980000000  0.5208333735000000
  0.5826779580000000  0.3862029980000000  0.6458333735000000
  0.5826779580000000  0.3862029980000000  0.7708333735000000
  0.5826779580000000  0.3862029980000000  0.8958333735000000
  0.4173220080000000  0.6137970020000000  0.1041666247500000
  0.4173220080000000  0.6137970020000000  0.2291666247500000
  0.4173220080000000  0.6137970020000000  0.3541666247500000
  0.4173220080000000  0.6137970020000000  0.4791666247500000
  0.4173220080000000  0.6137970020000000  0.6041666247500000
  0.4173220080000000  0.6137970020000000  0.7291666247500000
  0.4173220080000000  0.6137970020000000  0.8541666247500000
  0.4173220080000000  0.6137970020000000  0.9791666247500000
  0.4173220080000000  0.6137970020000000  0.0208333735000000
  0.4173220080000000  0.6137970020000000  0.1458333735000000
  0.4173220080000000  0.6137970020000000  0.2708333735000000
  0.4173220080000000  0.6137970020000000  0.3958333735000000
  0.4173220080000000  0.6137970020000000  0.5208333735000000
  0.4173220080000000  0.6137970020000000  0.6458333735000000
  0.4173220080000000  0.6137970020000000  0.7708333735000000
  0.4173220080000000  0.6137970020000000  0.8958333735000000
  0.5826779580000000  0.3862029980000000  0.1041666247500000
  0.5826779580000000  0.3862029980000000  0.2291666247500000
  0.5826779580000000  0.3862029980000000  0.3541666247500000
  0.5826779580000000  0.3862029980000000  0.4791666247500000
  0.5826779580000000  0.3862029980000000  0.6041666247500000
  0.5826779580000000  0.3862029980000000  0.7291666247500000
  0.5826779580000000  0.3862029980000000  0.8541666247500000
  0.5826779580000000  0.3862029980000000  0.9791666247500000
  0.6137970020000000  0.4173220080000000  0.0416666282500000
  0.6137970020000000  0.4173220080000000  0.1666666282500000
  0.6137970020000000  0.4173220080000000  0.2916666282500000
  0.6137970020000000  0.4173220080000000  0.4166666282500000
  0.6137970020000000  0.4173220080000000  0.5416666282500000
  0.6137970020000000  0.4173220080000000  0.6666666282500000
  0.6137970020000000  0.4173220080000000  0.7916666282500000
  0.6137970020000000  0.4173220080000000  0.9166666282500000
  0.3862029980000000  0.5826779580000000  0.0833333752500000
  0.3862029980000000  0.5826779580000000  0.2083333752500000
  0.3862029980000000  0.5826779580000000  0.3333333752500000
  0.3862029980000000  0.5826779580000000  0.4583333752500000
  0.3862029980000000  0.5826779580000000  0.5833333752500000
  0.3862029980000000  0.5826779580000000  0.7083333752500000
  0.3862029980000000  0.5826779580000000  0.8333333752500000
  0.3862029980000000  0.5826779580000000  0.9583333752500000
  0.3862029980000000  0.5826779580000000  0.0416666282500000
  0.3862029980000000  0.5826779580000000  0.1666666282500000
  0.3862029980000000  0.5826779580000000  0.2916666282500000
  0.3862029980000000  0.5826779580000000  0.4166666282500000
  0.3862029980000000  0.5826779580000000  0.5416666282500000
  0.3862029980000000  0.5826779580000000  0.6666666282500000
  0.3862029980000000  0.5826779580000000  0.7916666282500000
  0.3862029980000000  0.5826779580000000  0.9166666282500000
  0.6137970020000000  0.4173220080000000  0.0833333752500000
  0.6137970020000000  0.4173220080000000  0.2083333752500000
  0.6137970020000000  0.4173220080000000  0.3333333752500000
  0.6137970020000000  0.4173220080000000  0.4583333752500000
  0.6137970020000000  0.4173220080000000  0.5833333752500000
  0.6137970020000000  0.4173220080000000  0.7083333752500000
  0.6137970020000000  0.4173220080000000  0.8333333752500000
  0.6137970020000000  0.4173220080000000  0.9583333752500000
  0.4173220080000000  0.3862029980000000  0.1041666247500000
  0.4173220080000000  0.3862029980000000  0.2291666247500000
  0.4173220080000000  0.3862029980000000  0.3541666247500000
  0.4173220080000000  0.3862029980000000  0.4791666247500000
  0.4173220080000000  0.3862029980000000  0.6041666247500000
  0.4173220080000000  0.3862029980000000  0.7291666247500000
  0.4173220080000000  0.3862029980000000  0.8541666247500000
  0.4173220080000000  0.3862029980000000  0.9791666247500000
  0.5826779580000000  0.6137970020000000  0.0208333735000000
  0.5826779580000000  0.6137970020000000  0.1458333735000000
  0.5826779580000000  0.6137970020000000  0.2708333735000000
  0.5826779580000000  0.6137970020000000  0.3958333735000000
  0.5826779580000000  0.6137970020000000  0.5208333735000000
  0.5826779580000000  0.6137970020000000  0.6458333735000000
  0.5826779580000000  0.6137970020000000  0.7708333735000000
  0.5826779580000000  0.6137970020000000  0.8958333735000000
  0.5826779580000000  0.6137970020000000  0.1041666247500000
  0.5826779580000000  0.6137970020000000  0.2291666247500000
  0.5826779580000000  0.6137970020000000  0.3541666247500000
  0.5826779580000000  0.6137970020000000  0.4791666247500000
  0.5826779580000000  0.6137970020000000  0.6041666247500000
  0.5826779580000000  0.6137970020000000  0.7291666247500000
  0.5826779580000000  0.6137970020000000  0.8541666247500000
  0.5826779580000000  0.6137970020000000  0.9791666247500000
  0.4173220080000000  0.3862029980000000  0.0208333735000000
  0.4173220080000000  0.3862029980000000  0.1458333735000000
  0.4173220080000000  0.3862029980000000  0.2708333735000000
  0.4173220080000000  0.3862029980000000  0.3958333735000000
  0.4173220080000000  0.3862029980000000  0.5208333735000000
  0.4173220080000000  0.3862029980000000  0.6458333735000000
  0.4173220080000000  0.3862029980000000  0.7708333735000000
  0.4173220080000000  0.3862029980000000  0.8958333735000000
